p cnf 768 2253
c inputs: 1 2 3 4 5 6 7 8 9 10 11 12 13 14 15 16 17
c variables for gates: 18 ... 751
c outputs: 752 753 754 755 756 757 758 759 760 761 762 763 764 765 766 767 768
c random input: -1 2 3 -4 -5 6 7 8 9 -10 11 -12 13 14 15 -16 -17
18 -1 -9 0
-18 1 0
-18 9 0
19 -1 -10 0
-19 1 0
-19 10 0
20 -1 -11 0
-20 1 0
-20 11 0
21 -1 -12 0
-21 1 0
-21 12 0
22 -1 -13 0
-22 1 0
-22 13 0
23 -1 -14 0
-23 1 0
-23 14 0
24 -1 -15 0
-24 1 0
-24 15 0
25 -1 -16 0
-25 1 0
-25 16 0
26 -1 -17 0
-26 1 0
-26 17 0
27 -2 -9 0
-27 2 0
-27 9 0
28 -2 -10 0
-28 2 0
-28 10 0
29 -2 -11 0
-29 2 0
-29 11 0
30 -2 -12 0
-30 2 0
-30 12 0
31 -2 -13 0
-31 2 0
-31 13 0
32 -2 -14 0
-32 2 0
-32 14 0
33 -2 -15 0
-33 2 0
-33 15 0
34 -2 -16 0
-34 2 0
-34 16 0
35 -2 -17 0
-35 2 0
-35 17 0
36 -3 -9 0
-36 3 0
-36 9 0
37 -3 -10 0
-37 3 0
-37 10 0
38 -3 -11 0
-38 3 0
-38 11 0
39 -3 -12 0
-39 3 0
-39 12 0
40 -3 -13 0
-40 3 0
-40 13 0
41 -3 -14 0
-41 3 0
-41 14 0
42 -3 -15 0
-42 3 0
-42 15 0
43 -3 -16 0
-43 3 0
-43 16 0
44 -3 -17 0
-44 3 0
-44 17 0
45 -4 -9 0
-45 4 0
-45 9 0
46 -4 -10 0
-46 4 0
-46 10 0
47 -4 -11 0
-47 4 0
-47 11 0
48 -4 -12 0
-48 4 0
-48 12 0
49 -4 -13 0
-49 4 0
-49 13 0
50 -4 -14 0
-50 4 0
-50 14 0
51 -4 -15 0
-51 4 0
-51 15 0
52 -4 -16 0
-52 4 0
-52 16 0
53 -4 -17 0
-53 4 0
-53 17 0
54 -5 -9 0
-54 5 0
-54 9 0
55 -5 -10 0
-55 5 0
-55 10 0
56 -5 -11 0
-56 5 0
-56 11 0
57 -5 -12 0
-57 5 0
-57 12 0
58 -5 -13 0
-58 5 0
-58 13 0
59 -5 -14 0
-59 5 0
-59 14 0
60 -5 -15 0
-60 5 0
-60 15 0
61 -5 -16 0
-61 5 0
-61 16 0
62 -5 -17 0
-62 5 0
-62 17 0
63 -6 -9 0
-63 6 0
-63 9 0
64 -6 -10 0
-64 6 0
-64 10 0
65 -6 -11 0
-65 6 0
-65 11 0
66 -6 -12 0
-66 6 0
-66 12 0
67 -6 -13 0
-67 6 0
-67 13 0
68 -6 -14 0
-68 6 0
-68 14 0
69 -6 -15 0
-69 6 0
-69 15 0
70 -6 -16 0
-70 6 0
-70 16 0
71 -6 -17 0
-71 6 0
-71 17 0
72 -7 -9 0
-72 7 0
-72 9 0
73 -7 -10 0
-73 7 0
-73 10 0
74 -7 -11 0
-74 7 0
-74 11 0
75 -7 -12 0
-75 7 0
-75 12 0
76 -7 -13 0
-76 7 0
-76 13 0
77 -7 -14 0
-77 7 0
-77 14 0
78 -7 -15 0
-78 7 0
-78 15 0
79 -7 -16 0
-79 7 0
-79 16 0
80 -7 -17 0
-80 7 0
-80 17 0
81 -8 -9 0
-81 8 0
-81 9 0
82 -8 -10 0
-82 8 0
-82 10 0
83 -8 -11 0
-83 8 0
-83 11 0
84 -8 -12 0
-84 8 0
-84 12 0
85 -8 -13 0
-85 8 0
-85 13 0
86 -8 -14 0
-86 8 0
-86 14 0
87 -8 -15 0
-87 8 0
-87 15 0
88 -8 -16 0
-88 8 0
-88 16 0
89 -8 -17 0
-89 8 0
-89 17 0
90 -27 -19 0
-90 27 0
-90 19 0
91 -19 27 0
-91 19 0
-91 -27 0
92 -27 19 0
-92 27 0
-92 -19 0
93 91 92 0
-93 -91 0
-93 -92 0
94 -28 -20 0
-94 28 0
-94 20 0
95 -36 -20 0
-95 36 0
-95 20 0
96 -28 -36 0
-96 28 0
-96 36 0
97 95 96 0
-97 -95 0
-97 -96 0
98 94 -97 0
-98 -94 0
-98 97 0
99 -28 36 0
-99 28 0
-99 -36 0
100 -36 28 0
-100 36 0
-100 -28 0
101 100 99 0
-101 -100 0
-101 -99 0
102 -20 -101 0
-102 20 0
-102 101 0
103 20 101 0
-103 -20 0
-103 -101 0
104 102 103 0
-104 -102 0
-104 -103 0
105 -29 -21 0
-105 29 0
-105 21 0
106 -37 -21 0
-106 37 0
-106 21 0
107 -29 -37 0
-107 29 0
-107 37 0
108 106 107 0
-108 -106 0
-108 -107 0
109 105 -108 0
-109 -105 0
-109 108 0
110 -29 37 0
-110 29 0
-110 -37 0
111 -37 29 0
-111 37 0
-111 -29 0
112 111 110 0
-112 -111 0
-112 -110 0
113 -21 -112 0
-113 21 0
-113 112 0
114 21 112 0
-114 -21 0
-114 -112 0
115 113 114 0
-115 -113 0
-115 -114 0
116 -30 -22 0
-116 30 0
-116 22 0
117 -38 -22 0
-117 38 0
-117 22 0
118 -30 -38 0
-118 30 0
-118 38 0
119 117 118 0
-119 -117 0
-119 -118 0
120 116 -119 0
-120 -116 0
-120 119 0
121 -30 38 0
-121 30 0
-121 -38 0
122 -38 30 0
-122 38 0
-122 -30 0
123 122 121 0
-123 -122 0
-123 -121 0
124 -22 -123 0
-124 22 0
-124 123 0
125 22 123 0
-125 -22 0
-125 -123 0
126 124 125 0
-126 -124 0
-126 -125 0
127 -31 -23 0
-127 31 0
-127 23 0
128 -39 -23 0
-128 39 0
-128 23 0
129 -31 -39 0
-129 31 0
-129 39 0
130 128 129 0
-130 -128 0
-130 -129 0
131 127 -130 0
-131 -127 0
-131 130 0
132 -31 39 0
-132 31 0
-132 -39 0
133 -39 31 0
-133 39 0
-133 -31 0
134 133 132 0
-134 -133 0
-134 -132 0
135 -23 -134 0
-135 23 0
-135 134 0
136 23 134 0
-136 -23 0
-136 -134 0
137 135 136 0
-137 -135 0
-137 -136 0
138 -32 -24 0
-138 32 0
-138 24 0
139 -40 -24 0
-139 40 0
-139 24 0
140 -32 -40 0
-140 32 0
-140 40 0
141 139 140 0
-141 -139 0
-141 -140 0
142 138 -141 0
-142 -138 0
-142 141 0
143 -32 40 0
-143 32 0
-143 -40 0
144 -40 32 0
-144 40 0
-144 -32 0
145 144 143 0
-145 -144 0
-145 -143 0
146 -24 -145 0
-146 24 0
-146 145 0
147 24 145 0
-147 -24 0
-147 -145 0
148 146 147 0
-148 -146 0
-148 -147 0
149 -33 -25 0
-149 33 0
-149 25 0
150 -41 -25 0
-150 41 0
-150 25 0
151 -33 -41 0
-151 33 0
-151 41 0
152 150 151 0
-152 -150 0
-152 -151 0
153 149 -152 0
-153 -149 0
-153 152 0
154 -33 41 0
-154 33 0
-154 -41 0
155 -41 33 0
-155 41 0
-155 -33 0
156 155 154 0
-156 -155 0
-156 -154 0
157 -25 -156 0
-157 25 0
-157 156 0
158 25 156 0
-158 -25 0
-158 -156 0
159 157 158 0
-159 -157 0
-159 -158 0
160 -34 -26 0
-160 34 0
-160 26 0
161 -42 -26 0
-161 42 0
-161 26 0
162 -34 -42 0
-162 34 0
-162 42 0
163 161 162 0
-163 -161 0
-163 -162 0
164 160 -163 0
-164 -160 0
-164 163 0
165 -34 42 0
-165 34 0
-165 -42 0
166 -42 34 0
-166 42 0
-166 -34 0
167 166 165 0
-167 -166 0
-167 -165 0
168 -26 -167 0
-168 26 0
-168 167 0
169 26 167 0
-169 -26 0
-169 -167 0
170 168 169 0
-170 -168 0
-170 -169 0
171 -35 -43 0
-171 35 0
-171 43 0
172 -35 43 0
-172 35 0
-172 -43 0
173 -43 35 0
-173 43 0
-173 -35 0
174 173 172 0
-174 -173 0
-174 -172 0
175 -46 -54 0
-175 46 0
-175 54 0
176 -46 54 0
-176 46 0
-176 -54 0
177 -54 46 0
-177 54 0
-177 -46 0
178 177 176 0
-178 -177 0
-178 -176 0
179 -47 -55 0
-179 47 0
-179 55 0
180 -63 -47 0
-180 63 0
-180 47 0
181 -63 -55 0
-181 63 0
-181 55 0
182 180 181 0
-182 -180 0
-182 -181 0
183 179 -182 0
-183 -179 0
-183 182 0
184 -55 63 0
-184 55 0
-184 -63 0
185 -63 55 0
-185 63 0
-185 -55 0
186 185 184 0
-186 -185 0
-186 -184 0
187 -47 -186 0
-187 47 0
-187 186 0
188 47 186 0
-188 -47 0
-188 -186 0
189 187 188 0
-189 -187 0
-189 -188 0
190 -48 -56 0
-190 48 0
-190 56 0
191 -64 -48 0
-191 64 0
-191 48 0
192 -64 -56 0
-192 64 0
-192 56 0
193 192 191 0
-193 -192 0
-193 -191 0
194 190 -193 0
-194 -190 0
-194 193 0
195 -56 64 0
-195 56 0
-195 -64 0
196 -64 56 0
-196 64 0
-196 -56 0
197 196 195 0
-197 -196 0
-197 -195 0
198 -48 -197 0
-198 48 0
-198 197 0
199 48 197 0
-199 -48 0
-199 -197 0
200 198 199 0
-200 -198 0
-200 -199 0
201 -49 -57 0
-201 49 0
-201 57 0
202 -65 -49 0
-202 65 0
-202 49 0
203 -65 -57 0
-203 65 0
-203 57 0
204 203 202 0
-204 -203 0
-204 -202 0
205 201 -204 0
-205 -201 0
-205 204 0
206 -57 65 0
-206 57 0
-206 -65 0
207 -65 57 0
-207 65 0
-207 -57 0
208 207 206 0
-208 -207 0
-208 -206 0
209 -49 -208 0
-209 49 0
-209 208 0
210 49 208 0
-210 -49 0
-210 -208 0
211 209 210 0
-211 -209 0
-211 -210 0
212 -50 -58 0
-212 50 0
-212 58 0
213 -66 -50 0
-213 66 0
-213 50 0
214 -66 -58 0
-214 66 0
-214 58 0
215 213 214 0
-215 -213 0
-215 -214 0
216 212 -215 0
-216 -212 0
-216 215 0
217 -58 66 0
-217 58 0
-217 -66 0
218 -66 58 0
-218 66 0
-218 -58 0
219 218 217 0
-219 -218 0
-219 -217 0
220 -50 -219 0
-220 50 0
-220 219 0
221 50 219 0
-221 -50 0
-221 -219 0
222 220 221 0
-222 -220 0
-222 -221 0
223 -51 -59 0
-223 51 0
-223 59 0
224 -67 -51 0
-224 67 0
-224 51 0
225 -67 -59 0
-225 67 0
-225 59 0
226 224 225 0
-226 -224 0
-226 -225 0
227 223 -226 0
-227 -223 0
-227 226 0
228 -59 67 0
-228 59 0
-228 -67 0
229 -67 59 0
-229 67 0
-229 -59 0
230 229 228 0
-230 -229 0
-230 -228 0
231 -51 -230 0
-231 51 0
-231 230 0
232 51 230 0
-232 -51 0
-232 -230 0
233 231 232 0
-233 -231 0
-233 -232 0
234 -52 -60 0
-234 52 0
-234 60 0
235 -68 -52 0
-235 68 0
-235 52 0
236 -68 -60 0
-236 68 0
-236 60 0
237 236 235 0
-237 -236 0
-237 -235 0
238 234 -237 0
-238 -234 0
-238 237 0
239 -60 68 0
-239 60 0
-239 -68 0
240 -68 60 0
-240 68 0
-240 -60 0
241 240 239 0
-241 -240 0
-241 -239 0
242 -52 -241 0
-242 52 0
-242 241 0
243 52 241 0
-243 -52 0
-243 -241 0
244 242 243 0
-244 -242 0
-244 -243 0
245 -53 -61 0
-245 53 0
-245 61 0
246 -69 -53 0
-246 69 0
-246 53 0
247 -69 -61 0
-247 69 0
-247 61 0
248 247 246 0
-248 -247 0
-248 -246 0
249 245 -248 0
-249 -245 0
-249 248 0
250 -61 69 0
-250 61 0
-250 -69 0
251 -69 61 0
-251 69 0
-251 -61 0
252 251 250 0
-252 -251 0
-252 -250 0
253 -53 -252 0
-253 53 0
-253 252 0
254 53 252 0
-254 -53 0
-254 -252 0
255 253 254 0
-255 -253 0
-255 -254 0
256 -70 -62 0
-256 70 0
-256 62 0
257 -62 70 0
-257 62 0
-257 -70 0
258 -70 62 0
-258 70 0
-258 -62 0
259 258 257 0
-259 -258 0
-259 -257 0
260 -90 104 0
-260 90 0
-260 -104 0
261 90 104 0
-261 -90 0
-261 -104 0
262 -90 -104 0
-262 90 0
-262 104 0
263 262 261 0
-263 -262 0
-263 -261 0
264 98 115 0
-264 -98 0
-264 -115 0
265 -45 115 0
-265 45 0
-265 -115 0
266 -45 98 0
-266 45 0
-266 -98 0
267 266 265 0
-267 -266 0
-267 -265 0
268 -267 264 0
-268 267 0
-268 -264 0
269 45 98 0
-269 -45 0
-269 -98 0
270 -45 -98 0
-270 45 0
-270 98 0
271 270 269 0
-271 -270 0
-271 -269 0
272 115 -271 0
-272 -115 0
-272 271 0
273 -115 271 0
-273 115 0
-273 -271 0
274 273 272 0
-274 -273 0
-274 -272 0
275 109 126 0
-275 -109 0
-275 -126 0
276 178 126 0
-276 -178 0
-276 -126 0
277 178 109 0
-277 -178 0
-277 -109 0
278 277 276 0
-278 -277 0
-278 -276 0
279 275 -278 0
-279 -275 0
-279 278 0
280 -178 109 0
-280 178 0
-280 -109 0
281 178 -109 0
-281 -178 0
-281 109 0
282 280 281 0
-282 -280 0
-282 -281 0
283 126 -282 0
-283 -126 0
-283 282 0
284 -126 282 0
-284 126 0
-284 -282 0
285 284 283 0
-285 -284 0
-285 -283 0
286 120 137 0
-286 -120 0
-286 -137 0
287 189 137 0
-287 -189 0
-287 -137 0
288 120 189 0
-288 -120 0
-288 -189 0
289 288 287 0
-289 -288 0
-289 -287 0
290 286 -289 0
-290 -286 0
-290 289 0
291 120 -189 0
-291 -120 0
-291 189 0
292 -120 189 0
-292 120 0
-292 -189 0
293 291 292 0
-293 -291 0
-293 -292 0
294 137 -293 0
-294 -137 0
-294 293 0
295 -137 293 0
-295 137 0
-295 -293 0
296 295 294 0
-296 -295 0
-296 -294 0
297 131 148 0
-297 -131 0
-297 -148 0
298 200 148 0
-298 -200 0
-298 -148 0
299 131 200 0
-299 -131 0
-299 -200 0
300 299 298 0
-300 -299 0
-300 -298 0
301 297 -300 0
-301 -297 0
-301 300 0
302 131 -200 0
-302 -131 0
-302 200 0
303 -131 200 0
-303 131 0
-303 -200 0
304 302 303 0
-304 -302 0
-304 -303 0
305 148 -304 0
-305 -148 0
-305 304 0
306 -148 304 0
-306 148 0
-306 -304 0
307 306 305 0
-307 -306 0
-307 -305 0
308 142 159 0
-308 -142 0
-308 -159 0
309 211 159 0
-309 -211 0
-309 -159 0
310 142 211 0
-310 -142 0
-310 -211 0
311 310 309 0
-311 -310 0
-311 -309 0
312 308 -311 0
-312 -308 0
-312 311 0
313 142 -211 0
-313 -142 0
-313 211 0
314 -142 211 0
-314 142 0
-314 -211 0
315 313 314 0
-315 -313 0
-315 -314 0
316 159 -315 0
-316 -159 0
-316 315 0
317 -159 315 0
-317 159 0
-317 -315 0
318 317 316 0
-318 -317 0
-318 -316 0
319 153 170 0
-319 -153 0
-319 -170 0
320 222 170 0
-320 -222 0
-320 -170 0
321 153 222 0
-321 -153 0
-321 -222 0
322 321 320 0
-322 -321 0
-322 -320 0
323 319 -322 0
-323 -319 0
-323 322 0
324 153 -222 0
-324 -153 0
-324 222 0
325 -153 222 0
-325 153 0
-325 -222 0
326 324 325 0
-326 -324 0
-326 -325 0
327 170 -326 0
-327 -170 0
-327 326 0
328 -170 326 0
-328 170 0
-328 -326 0
329 328 327 0
-329 -328 0
-329 -327 0
330 174 164 0
-330 -174 0
-330 -164 0
331 174 233 0
-331 -174 0
-331 -233 0
332 164 233 0
-332 -164 0
-332 -233 0
333 331 332 0
-333 -331 0
-333 -332 0
334 330 -333 0
-334 -330 0
-334 333 0
335 164 -233 0
-335 -164 0
-335 233 0
336 -164 233 0
-336 164 0
-336 -233 0
337 335 336 0
-337 -335 0
-337 -336 0
338 174 -337 0
-338 -174 0
-338 337 0
339 -174 337 0
-339 174 0
-339 -337 0
340 339 338 0
-340 -339 0
-340 -338 0
341 -44 -171 0
-341 44 0
-341 171 0
342 -44 244 0
-342 44 0
-342 -244 0
343 -171 244 0
-343 171 0
-343 -244 0
344 342 343 0
-344 -342 0
-344 -343 0
345 341 -344 0
-345 -341 0
-345 344 0
346 -171 -244 0
-346 171 0
-346 244 0
347 171 244 0
-347 -171 0
-347 -244 0
348 346 347 0
-348 -346 0
-348 -347 0
349 -44 -348 0
-349 44 0
-349 348 0
350 44 348 0
-350 -44 0
-350 -348 0
351 350 349 0
-351 -350 0
-351 -349 0
352 -72 183 0
-352 72 0
-352 -183 0
353 72 183 0
-353 -72 0
-353 -183 0
354 -72 -183 0
-354 72 0
-354 183 0
355 354 353 0
-355 -354 0
-355 -353 0
356 -81 194 0
-356 81 0
-356 -194 0
357 -73 194 0
-357 73 0
-357 -194 0
358 -73 -81 0
-358 73 0
-358 81 0
359 358 357 0
-359 -358 0
-359 -357 0
360 356 -359 0
-360 -356 0
-360 359 0
361 -81 73 0
-361 81 0
-361 -73 0
362 -73 81 0
-362 73 0
-362 -81 0
363 361 362 0
-363 -361 0
-363 -362 0
364 -363 194 0
-364 363 0
-364 -194 0
365 363 -194 0
-365 -363 0
-365 194 0
366 364 365 0
-366 -364 0
-366 -365 0
367 -82 205 0
-367 82 0
-367 -205 0
368 -74 205 0
-368 74 0
-368 -205 0
369 -74 -82 0
-369 74 0
-369 82 0
370 369 368 0
-370 -369 0
-370 -368 0
371 367 -370 0
-371 -367 0
-371 370 0
372 -82 74 0
-372 82 0
-372 -74 0
373 -74 82 0
-373 74 0
-373 -82 0
374 372 373 0
-374 -372 0
-374 -373 0
375 -374 205 0
-375 374 0
-375 -205 0
376 374 -205 0
-376 -374 0
-376 205 0
377 375 376 0
-377 -375 0
-377 -376 0
378 -83 216 0
-378 83 0
-378 -216 0
379 -75 216 0
-379 75 0
-379 -216 0
380 -75 -83 0
-380 75 0
-380 83 0
381 380 379 0
-381 -380 0
-381 -379 0
382 378 -381 0
-382 -378 0
-382 381 0
383 -83 75 0
-383 83 0
-383 -75 0
384 -75 83 0
-384 75 0
-384 -83 0
385 383 384 0
-385 -383 0
-385 -384 0
386 -385 216 0
-386 385 0
-386 -216 0
387 385 -216 0
-387 -385 0
-387 216 0
388 386 387 0
-388 -386 0
-388 -387 0
389 -84 227 0
-389 84 0
-389 -227 0
390 -76 227 0
-390 76 0
-390 -227 0
391 -76 -84 0
-391 76 0
-391 84 0
392 391 390 0
-392 -391 0
-392 -390 0
393 389 -392 0
-393 -389 0
-393 392 0
394 -84 76 0
-394 84 0
-394 -76 0
395 -76 84 0
-395 76 0
-395 -84 0
396 394 395 0
-396 -394 0
-396 -395 0
397 -396 227 0
-397 396 0
-397 -227 0
398 396 -227 0
-398 -396 0
-398 227 0
399 397 398 0
-399 -397 0
-399 -398 0
400 -85 238 0
-400 85 0
-400 -238 0
401 -77 238 0
-401 77 0
-401 -238 0
402 -77 -85 0
-402 77 0
-402 85 0
403 402 401 0
-403 -402 0
-403 -401 0
404 400 -403 0
-404 -400 0
-404 403 0
405 -85 77 0
-405 85 0
-405 -77 0
406 -77 85 0
-406 77 0
-406 -85 0
407 405 406 0
-407 -405 0
-407 -406 0
408 -407 238 0
-408 407 0
-408 -238 0
409 407 -238 0
-409 -407 0
-409 238 0
410 408 409 0
-410 -408 0
-410 -409 0
411 -86 249 0
-411 86 0
-411 -249 0
412 -78 249 0
-412 78 0
-412 -249 0
413 -78 -86 0
-413 78 0
-413 86 0
414 413 412 0
-414 -413 0
-414 -412 0
415 411 -414 0
-415 -411 0
-415 414 0
416 -86 78 0
-416 86 0
-416 -78 0
417 -78 86 0
-417 78 0
-417 -86 0
418 416 417 0
-418 -416 0
-418 -417 0
419 -418 249 0
-419 418 0
-419 -249 0
420 418 -249 0
-420 -418 0
-420 249 0
421 419 420 0
-421 -419 0
-421 -420 0
422 -87 -256 0
-422 87 0
-422 256 0
423 -79 -256 0
-423 79 0
-423 256 0
424 -79 -87 0
-424 79 0
-424 87 0
425 424 423 0
-425 -424 0
-425 -423 0
426 422 -425 0
-426 -422 0
-426 425 0
427 -87 79 0
-427 87 0
-427 -79 0
428 -79 87 0
-428 79 0
-428 -87 0
429 427 428 0
-429 -427 0
-429 -428 0
430 -256 -429 0
-430 256 0
-430 429 0
431 256 429 0
-431 -256 0
-431 -429 0
432 431 430 0
-432 -431 0
-432 -430 0
433 -80 -88 0
-433 80 0
-433 88 0
434 -88 80 0
-434 88 0
-434 -80 0
435 -80 88 0
-435 80 0
-435 -88 0
436 434 435 0
-436 -434 0
-436 -435 0
437 -260 274 0
-437 260 0
-437 -274 0
438 260 274 0
-438 -260 0
-438 -274 0
439 -260 -274 0
-439 260 0
-439 274 0
440 439 438 0
-440 -439 0
-440 -438 0
441 268 285 0
-441 -268 0
-441 -285 0
442 -268 285 0
-442 268 0
-442 -285 0
443 268 -285 0
-443 -268 0
-443 285 0
444 443 442 0
-444 -443 0
-444 -442 0
445 279 296 0
-445 -279 0
-445 -296 0
446 -175 296 0
-446 175 0
-446 -296 0
447 -175 279 0
-447 175 0
-447 -279 0
448 447 446 0
-448 -447 0
-448 -446 0
449 445 -448 0
-449 -445 0
-449 448 0
450 175 279 0
-450 -175 0
-450 -279 0
451 -175 -279 0
-451 175 0
-451 279 0
452 450 451 0
-452 -450 0
-452 -451 0
453 296 -452 0
-453 -296 0
-453 452 0
454 -296 452 0
-454 296 0
-454 -452 0
455 453 454 0
-455 -453 0
-455 -454 0
456 307 290 0
-456 -307 0
-456 -290 0
457 355 307 0
-457 -355 0
-457 -307 0
458 355 290 0
-458 -355 0
-458 -290 0
459 458 457 0
-459 -458 0
-459 -457 0
460 456 -459 0
-460 -456 0
-460 459 0
461 -355 290 0
-461 355 0
-461 -290 0
462 355 -290 0
-462 -355 0
-462 290 0
463 462 461 0
-463 -462 0
-463 -461 0
464 -463 307 0
-464 463 0
-464 -307 0
465 463 -307 0
-465 -463 0
-465 307 0
466 464 465 0
-466 -464 0
-466 -465 0
467 318 301 0
-467 -318 0
-467 -301 0
468 318 366 0
-468 -318 0
-468 -366 0
469 366 301 0
-469 -366 0
-469 -301 0
470 469 468 0
-470 -469 0
-470 -468 0
471 467 -470 0
-471 -467 0
-471 470 0
472 -366 301 0
-472 366 0
-472 -301 0
473 366 -301 0
-473 -366 0
-473 301 0
474 472 473 0
-474 -472 0
-474 -473 0
475 -474 318 0
-475 474 0
-475 -318 0
476 474 -318 0
-476 -474 0
-476 318 0
477 475 476 0
-477 -475 0
-477 -476 0
478 329 312 0
-478 -329 0
-478 -312 0
479 329 377 0
-479 -329 0
-479 -377 0
480 377 312 0
-480 -377 0
-480 -312 0
481 480 479 0
-481 -480 0
-481 -479 0
482 478 -481 0
-482 -478 0
-482 481 0
483 -377 312 0
-483 377 0
-483 -312 0
484 377 -312 0
-484 -377 0
-484 312 0
485 483 484 0
-485 -483 0
-485 -484 0
486 -485 329 0
-486 485 0
-486 -329 0
487 485 -329 0
-487 -485 0
-487 329 0
488 487 486 0
-488 -487 0
-488 -486 0
489 340 323 0
-489 -340 0
-489 -323 0
490 340 388 0
-490 -340 0
-490 -388 0
491 388 323 0
-491 -388 0
-491 -323 0
492 491 490 0
-492 -491 0
-492 -490 0
493 489 -492 0
-493 -489 0
-493 492 0
494 -388 323 0
-494 388 0
-494 -323 0
495 388 -323 0
-495 -388 0
-495 323 0
496 495 494 0
-496 -495 0
-496 -494 0
497 -496 340 0
-497 496 0
-497 -340 0
498 496 -340 0
-498 -496 0
-498 340 0
499 498 497 0
-499 -498 0
-499 -497 0
500 351 334 0
-500 -351 0
-500 -334 0
501 351 399 0
-501 -351 0
-501 -399 0
502 399 334 0
-502 -399 0
-502 -334 0
503 502 501 0
-503 -502 0
-503 -501 0
504 500 -503 0
-504 -500 0
-504 503 0
505 -399 334 0
-505 399 0
-505 -334 0
506 399 -334 0
-506 -399 0
-506 334 0
507 505 506 0
-507 -505 0
-507 -506 0
508 351 -507 0
-508 -351 0
-508 507 0
509 -351 507 0
-509 351 0
-509 -507 0
510 508 509 0
-510 -508 0
-510 -509 0
511 255 345 0
-511 -255 0
-511 -345 0
512 255 410 0
-512 -255 0
-512 -410 0
513 410 345 0
-513 -410 0
-513 -345 0
514 513 512 0
-514 -513 0
-514 -512 0
515 -514 511 0
-515 514 0
-515 -511 0
516 -410 345 0
-516 410 0
-516 -345 0
517 410 -345 0
-517 -410 0
-517 345 0
518 517 516 0
-518 -517 0
-518 -516 0
519 255 -518 0
-519 -255 0
-519 518 0
520 -255 518 0
-520 255 0
-520 -518 0
521 519 520 0
-521 -519 0
-521 -520 0
522 259 421 0
-522 -259 0
-522 -421 0
523 259 -421 0
-523 -259 0
-523 421 0
524 -259 421 0
-524 259 0
-524 -421 0
525 524 523 0
-525 -524 0
-525 -523 0
526 -71 432 0
-526 71 0
-526 -432 0
527 -71 -432 0
-527 71 0
-527 432 0
528 71 432 0
-528 -71 0
-528 -432 0
529 528 527 0
-529 -528 0
-529 -527 0
530 444 -437 0
-530 -444 0
-530 437 0
531 444 437 0
-531 -444 0
-531 -437 0
532 -444 -437 0
-532 444 0
-532 437 0
533 532 531 0
-533 -532 0
-533 -531 0
534 -441 455 0
-534 441 0
-534 -455 0
535 441 455 0
-535 -441 0
-535 -455 0
536 -441 -455 0
-536 441 0
-536 455 0
537 535 536 0
-537 -535 0
-537 -536 0
538 449 466 0
-538 -449 0
-538 -466 0
539 -449 466 0
-539 449 0
-539 -466 0
540 449 -466 0
-540 -449 0
-540 466 0
541 539 540 0
-541 -539 0
-541 -540 0
542 460 477 0
-542 -460 0
-542 -477 0
543 -352 477 0
-543 352 0
-543 -477 0
544 -352 460 0
-544 352 0
-544 -460 0
545 544 543 0
-545 -544 0
-545 -543 0
546 542 -545 0
-546 -542 0
-546 545 0
547 352 460 0
-547 -352 0
-547 -460 0
548 -352 -460 0
-548 352 0
-548 460 0
549 548 547 0
-549 -548 0
-549 -547 0
550 477 -549 0
-550 -477 0
-550 549 0
551 -477 549 0
-551 477 0
-551 -549 0
552 551 550 0
-552 -551 0
-552 -550 0
553 471 488 0
-553 -471 0
-553 -488 0
554 488 360 0
-554 -488 0
-554 -360 0
555 471 360 0
-555 -471 0
-555 -360 0
556 555 554 0
-556 -555 0
-556 -554 0
557 553 -556 0
-557 -553 0
-557 556 0
558 471 -360 0
-558 -471 0
-558 360 0
559 -471 360 0
-559 471 0
-559 -360 0
560 558 559 0
-560 -558 0
-560 -559 0
561 488 -560 0
-561 -488 0
-561 560 0
562 -488 560 0
-562 488 0
-562 -560 0
563 561 562 0
-563 -561 0
-563 -562 0
564 482 499 0
-564 -482 0
-564 -499 0
565 499 371 0
-565 -499 0
-565 -371 0
566 482 371 0
-566 -482 0
-566 -371 0
567 566 565 0
-567 -566 0
-567 -565 0
568 -567 564 0
-568 567 0
-568 -564 0
569 482 -371 0
-569 -482 0
-569 371 0
570 -482 371 0
-570 482 0
-570 -371 0
571 570 569 0
-571 -570 0
-571 -569 0
572 499 -571 0
-572 -499 0
-572 571 0
573 -499 571 0
-573 499 0
-573 -571 0
574 572 573 0
-574 -572 0
-574 -573 0
575 510 493 0
-575 -510 0
-575 -493 0
576 510 382 0
-576 -510 0
-576 -382 0
577 382 493 0
-577 -382 0
-577 -493 0
578 577 576 0
-578 -577 0
-578 -576 0
579 -578 575 0
-579 578 0
-579 -575 0
580 -382 493 0
-580 382 0
-580 -493 0
581 382 -493 0
-581 -382 0
-581 493 0
582 580 581 0
-582 -580 0
-582 -581 0
583 510 -582 0
-583 -510 0
-583 582 0
584 -510 582 0
-584 510 0
-584 -582 0
585 583 584 0
-585 -583 0
-585 -584 0
586 521 504 0
-586 -521 0
-586 -504 0
587 521 393 0
-587 -521 0
-587 -393 0
588 393 504 0
-588 -393 0
-588 -504 0
589 587 588 0
-589 -587 0
-589 -588 0
590 586 -589 0
-590 -586 0
-590 589 0
591 -393 504 0
-591 393 0
-591 -504 0
592 393 -504 0
-592 -393 0
-592 504 0
593 591 592 0
-593 -591 0
-593 -592 0
594 521 -593 0
-594 -521 0
-594 593 0
595 -521 593 0
-595 521 0
-595 -593 0
596 595 594 0
-596 -595 0
-596 -594 0
597 515 525 0
-597 -515 0
-597 -525 0
598 404 525 0
-598 -404 0
-598 -525 0
599 515 404 0
-599 -515 0
-599 -404 0
600 598 599 0
-600 -598 0
-600 -599 0
601 -600 597 0
-601 600 0
-601 -597 0
602 515 -404 0
-602 -515 0
-602 404 0
603 -515 404 0
-603 515 0
-603 -404 0
604 603 602 0
-604 -603 0
-604 -602 0
605 -604 525 0
-605 604 0
-605 -525 0
606 604 -525 0
-606 -604 0
-606 525 0
607 605 606 0
-607 -605 0
-607 -606 0
608 -522 529 0
-608 522 0
-608 -529 0
609 415 529 0
-609 -415 0
-609 -529 0
610 -522 415 0
-610 522 0
-610 -415 0
611 610 609 0
-611 -610 0
-611 -609 0
612 608 -611 0
-612 -608 0
-612 611 0
613 -522 -415 0
-613 522 0
-613 415 0
614 522 415 0
-614 -522 0
-614 -415 0
615 613 614 0
-615 -613 0
-615 -614 0
616 529 -615 0
-616 -529 0
-616 615 0
617 -529 615 0
-617 529 0
-617 -615 0
618 616 617 0
-618 -616 0
-618 -617 0
619 436 -526 0
-619 -436 0
-619 526 0
620 436 426 0
-620 -436 0
-620 -426 0
621 426 -526 0
-621 -426 0
-621 526 0
622 620 621 0
-622 -620 0
-622 -621 0
623 619 -622 0
-623 -619 0
-623 622 0
624 -426 -526 0
-624 426 0
-624 526 0
625 426 526 0
-625 -426 0
-625 -526 0
626 625 624 0
-626 -625 0
-626 -624 0
627 436 -626 0
-627 -436 0
-627 626 0
628 -436 626 0
-628 436 0
-628 -626 0
629 627 628 0
-629 -627 0
-629 -628 0
630 -89 -433 0
-630 89 0
-630 433 0
631 -89 433 0
-631 89 0
-631 -433 0
632 89 -433 0
-632 -89 0
-632 433 0
633 632 631 0
-633 -632 0
-633 -631 0
634 530 537 0
-634 -530 0
-634 -537 0
635 -530 -537 0
-635 530 0
-635 537 0
636 634 635 0
-636 -634 0
-636 -635 0
637 -530 537 0
-637 530 0
-637 -537 0
638 534 541 0
-638 -534 0
-638 -541 0
639 -534 -541 0
-639 534 0
-639 541 0
640 639 638 0
-640 -639 0
-640 -638 0
641 -640 -637 0
-641 640 0
-641 637 0
642 640 637 0
-642 -640 0
-642 -637 0
643 642 641 0
-643 -642 0
-643 -641 0
644 -637 541 0
-644 637 0
-644 -541 0
645 -637 -534 0
-645 637 0
-645 534 0
646 -534 541 0
-646 534 0
-646 -541 0
647 646 645 0
-647 -646 0
-647 -645 0
648 -647 644 0
-648 647 0
-648 -644 0
649 552 538 0
-649 -552 0
-649 -538 0
650 -552 -538 0
-650 552 0
-650 538 0
651 650 649 0
-651 -650 0
-651 -649 0
652 648 -651 0
-652 -648 0
-652 651 0
653 -648 651 0
-653 648 0
-653 -651 0
654 653 652 0
-654 -653 0
-654 -652 0
655 552 648 0
-655 -552 0
-655 -648 0
656 -538 648 0
-656 538 0
-656 -648 0
657 552 -538 0
-657 -552 0
-657 538 0
658 657 656 0
-658 -657 0
-658 -656 0
659 -658 655 0
-659 658 0
-659 -655 0
660 -546 563 0
-660 546 0
-660 -563 0
661 546 -563 0
-661 -546 0
-661 563 0
662 661 660 0
-662 -661 0
-662 -660 0
663 -662 659 0
-663 662 0
-663 -659 0
664 662 -659 0
-664 -662 0
-664 659 0
665 664 663 0
-665 -664 0
-665 -663 0
666 659 563 0
-666 -659 0
-666 -563 0
667 546 659 0
-667 -546 0
-667 -659 0
668 546 563 0
-668 -546 0
-668 -563 0
669 668 667 0
-669 -668 0
-669 -667 0
670 -669 666 0
-670 669 0
-670 -666 0
671 -557 574 0
-671 557 0
-671 -574 0
672 557 -574 0
-672 -557 0
-672 574 0
673 671 672 0
-673 -671 0
-673 -672 0
674 670 -673 0
-674 -670 0
-674 673 0
675 -670 673 0
-675 670 0
-675 -673 0
676 675 674 0
-676 -675 0
-676 -674 0
677 670 574 0
-677 -670 0
-677 -574 0
678 670 557 0
-678 -670 0
-678 -557 0
679 557 574 0
-679 -557 0
-679 -574 0
680 678 679 0
-680 -678 0
-680 -679 0
681 -680 677 0
-681 680 0
-681 -677 0
682 -568 585 0
-682 568 0
-682 -585 0
683 568 -585 0
-683 -568 0
-683 585 0
684 682 683 0
-684 -682 0
-684 -683 0
685 681 -684 0
-685 -681 0
-685 684 0
686 -681 684 0
-686 681 0
-686 -684 0
687 686 685 0
-687 -686 0
-687 -685 0
688 681 585 0
-688 -681 0
-688 -585 0
689 681 568 0
-689 -681 0
-689 -568 0
690 568 585 0
-690 -568 0
-690 -585 0
691 690 689 0
-691 -690 0
-691 -689 0
692 688 -691 0
-692 -688 0
-692 691 0
693 596 -579 0
-693 -596 0
-693 579 0
694 -596 579 0
-694 596 0
-694 -579 0
695 694 693 0
-695 -694 0
-695 -693 0
696 -695 692 0
-696 695 0
-696 -692 0
697 695 -692 0
-697 -695 0
-697 692 0
698 696 697 0
-698 -696 0
-698 -697 0
699 596 692 0
-699 -596 0
-699 -692 0
700 692 579 0
-700 -692 0
-700 -579 0
701 596 579 0
-701 -596 0
-701 -579 0
702 701 700 0
-702 -701 0
-702 -700 0
703 -702 699 0
-703 702 0
-703 -699 0
704 607 -590 0
-704 -607 0
-704 590 0
705 -607 590 0
-705 607 0
-705 -590 0
706 704 705 0
-706 -704 0
-706 -705 0
707 -706 703 0
-707 706 0
-707 -703 0
708 706 -703 0
-708 -706 0
-708 703 0
709 708 707 0
-709 -708 0
-709 -707 0
710 607 703 0
-710 -607 0
-710 -703 0
711 703 590 0
-711 -703 0
-711 -590 0
712 607 590 0
-712 -607 0
-712 -590 0
713 712 711 0
-713 -712 0
-713 -711 0
714 -713 710 0
-714 713 0
-714 -710 0
715 -601 618 0
-715 601 0
-715 -618 0
716 601 -618 0
-716 -601 0
-716 618 0
717 716 715 0
-717 -716 0
-717 -715 0
718 -717 714 0
-718 717 0
-718 -714 0
719 717 -714 0
-719 -717 0
-719 714 0
720 718 719 0
-720 -718 0
-720 -719 0
721 618 714 0
-721 -618 0
-721 -714 0
722 601 714 0
-722 -601 0
-722 -714 0
723 601 618 0
-723 -601 0
-723 -618 0
724 723 722 0
-724 -723 0
-724 -722 0
725 -724 721 0
-725 724 0
-725 -721 0
726 -612 629 0
-726 612 0
-726 -629 0
727 612 -629 0
-727 -612 0
-727 629 0
728 726 727 0
-728 -726 0
-728 -727 0
729 725 -728 0
-729 -725 0
-729 728 0
730 -725 728 0
-730 725 0
-730 -728 0
731 729 730 0
-731 -729 0
-731 -730 0
732 725 629 0
-732 -725 0
-732 -629 0
733 612 725 0
-733 -612 0
-733 -725 0
734 612 629 0
-734 -612 0
-734 -629 0
735 733 734 0
-735 -733 0
-735 -734 0
736 -735 732 0
-736 735 0
-736 -732 0
737 633 -623 0
-737 -633 0
-737 623 0
738 -633 623 0
-738 633 0
-738 -623 0
739 738 737 0
-739 -738 0
-739 -737 0
740 736 -739 0
-740 -736 0
-740 739 0
741 -736 739 0
-741 736 0
-741 -739 0
742 741 740 0
-742 -741 0
-742 -740 0
743 633 736 0
-743 -633 0
-743 -736 0
744 736 623 0
-744 -736 0
-744 -623 0
745 633 623 0
-745 -633 0
-745 -623 0
746 745 744 0
-746 -745 0
-746 -744 0
747 -746 743 0
-747 746 0
-747 -743 0
748 630 747 0
-748 -630 0
-748 -747 0
749 -630 -747 0
-749 630 0
-749 747 0
750 749 748 0
-750 -749 0
-750 -748 0
751 -630 747 0
-751 630 0
-751 -747 0
-752 18 0
752 -18 0
-753 -93 0
753 93 0
-754 -263 0
754 263 0
-755 -440 0
755 440 0
-756 -533 0
756 533 0
-757 -636 0
757 636 0
-758 -643 0
758 643 0
-759 -654 0
759 654 0
-760 -665 0
760 665 0
-761 -676 0
761 676 0
-762 -687 0
762 687 0
-763 -698 0
763 698 0
-764 -709 0
764 709 0
-765 -720 0
765 720 0
-766 -731 0
766 731 0
-767 -742 0
767 742 0
-768 -750 0
768 750 0
-752 0
753 0
754 0
755 0
756 0
-757 0
-758 0
-759 0
760 0
-761 0
-762 0
763 0
-764 0
765 0
766 0
-767 0
-768 0
